c 3 chaussettes dans 2 tiroirs
p cnf 6 21
1 2 0
3 4 0
5 6 0
-1 -2 0
-2 -1 0
-3 -4 0
-4 -3 0
-5 -6 0
-6 -5 0
-1 -3 0
-2 -4 0
-1 -5 0
-2 -6 0
-3 -1 0
-4 -2 0
-3 -5 0
-4 -6 0
-5 -1 0
-6 -2 0
-5 -3 0
-6 -4 0
